HUN,8,6,754
5,13,0,5,4,28,3,3
2,11,0,21,5,21,4,15,1,25,3,18
4,20,5,28,3,8,1,28
4,18,2,29,0,26,3,29,1,1
3,3,2,22,1,14,0,1,4,13
0,25,5,3,1,6,3,13,4,29,2,16
3,12,4,18,5,3,2,7,0,10,1,30
1,17,2,5,4,19,0,1,5,30
